p tw 233 260
1 2
2 113
3 14
4 5
5 6
6 7
7 8
8 9
9 10
10 149
11 12
12 13
13 15
14 25
15 16
16 17
17 18
18 19
19 20
20 149
21 22
22 23
23 24
24 26
25 36
26 27
27 28
28 29
29 30
30 149
31 32
32 33
32 38
33 34
33 40
34 35
34 42
35 37
35 50
36 47
36 69
37 56
38 39
39 149
40 41
41 149
42 43
43 44
44 45
45 46
46 48
47 58
48 49
49 149
50 51
51 52
52 53
53 54
54 55
55 149
56 57
57 59
57 76
58 69
58 125
59 60
59 66
60 61
61 62
62 63
63 64
64 65
65 74
66 67
67 68
68 70
69 80
70 71
71 72
72 73
73 74
74 75
75 149
76 77
77 78
78 79
79 81
80 91
81 82
81 94
82 83
83 84
84 85
85 86
86 87
87 88
88 89
89 90
90 92
91 102
92 93
93 111
94 95
95 96
96 97
96 101
97 98
98 99
98 101
99 100
100 111
101 103
102 114
103 104
104 105
105 106
106 107
107 108
108 109
109 110
110 111
111 112
112 115
113 157
114 149
115 116
115 121
116 117
117 118
117 123
118 119
119 120
119 127
120 138
121 122
122 149
123 124
124 126
125 136
126 149
127 128
128 129
129 130
130 131
131 132
132 133
133 134
134 135
135 137
136 147
137 149
138 139
139 140
140 141
141 142
142 143
143 144
144 145
145 146
146 148
147 151
147 154
148 149
149 150
151 152
152 153
153 149
154 155
155 156
156 158
157 168
158 159
159 160
160 161
161 162
162 163
163 164
164 165
165 166
166 167
167 169
168 179
169 170
169 192
170 171
170 175
171 172
171 175
172 173
172 177
173 174
173 185
174 192
175 176
176 149
177 178
178 180
179 190
180 181
181 182
182 183
183 184
184 149
185 186
186 187
187 188
188 189
189 191
190 201
191 149
192 193
193 194
194 195
195 196
196 197
196 215
197 198
197 205
198 199
199 200
200 202
201 212
202 203
203 204
204 213
205 206
206 207
207 208
208 209
209 210
210 211
211 213
212 223
213 214
214 149
215 216
216 217
217 218
218 219
218 56
219 220
219 31
220 221
220 227
221 222
222 224
222 4
223 3
224 225
224 11
225 226
225 21
226 56
227 228
228 229
229 230
230 231
231 232
232 233
233 149
